c A SAT instance generated from a 3-CNF formula that had 40 clauses and 10 variables
p cnf 10 40
-2 1 7 0
-3 -10 -1 0
1 -7 8 0
10 6 -7 0
-7 4 9 0
2 -3 9 0
3 1 -4 0
9 10 7 0
4 -6 9 0
-5 7 10 0
4 3 9 0
-6 -9 -10 0
-8 2 -4 0
-4 8 -6 0
-6 9 -1 0
-9 1 6 0
-2 -6 5 0
-8 -2 -6 0
5 10 2 0
-10 8 2 0
3 2 -5 0
1 7 8 0
3 4 1 0
-3 -2 -7 0
-5 -1 -8 0
-7 -4 6 0
-6 7 8 0
-1 -9 -2 0
6 -2 -9 0
1 -9 -3 0
5 -4 8 0
10 7 -2 0
-4 -10 -1 0
7 -5 -6 0
3 -2 1 0
-6 8 7 0
-5 -4 7 0
7 -10 4 0
5 -9 -3 0
2 -5 -4 0
